&CONTROL
  calculation = "nscf",
  dt          = 30.D0,
  pseudo_dir='/home/lucia/q-e-qe-6.5/pseudo',
  outdir      = "./outdir",
/
&SYSTEM
  ibrav       = 0,
  nat         = 22,
  ntyp        = 3,
  ecutwfc     = 25.D0,
  occupations = "smearing",
  smearing    = "gaussian",
  degauss     =  0.02
/
&ELECTRONS
  conv_thr    = 1.D-7,
  mixing_beta = 0.3D0,
/
&IONS
  ion_dynamics      = "damp",
  pot_extrapolation = "second_order",
  wfc_extrapolation = "second_order",
/
ATOMIC_SPECIES
 C  12.0107 C.pbe-n-kjpaw_psl.1.0.0.UPF  
 H  1.00784  H_ONCV_PBE-1.0.oncvpsp.upf
 Ge 72.64	Ge.pbe-dn-kjpaw_psl.1.0.0.UPF
ATOMIC_POSITIONS { bohr }
H       -0.866383493   0.000000000  -0.387957378
H       -0.711220838   0.000000000   3.030934721
C        1.072625627   0.000000000   4.065784530
C        0.990698233   0.000000000   6.757714408
C        3.366921600   0.000000000  -0.050950553
C        3.500558238   0.000000000   2.807415085
C        5.866958780   0.000000000   4.031292629
C        5.692486623   0.000000000   6.786508120
C        8.012794372   0.000000000   0.028337841
C        8.423472179   0.000000000   2.666531496
Ge      11.140626499   0.000000000   6.776324972
C       11.086117976   0.000000000   3.336376218
C       14.269089740   0.000000000   0.056690369
C       13.752451497   0.000000000   2.678936013
C       16.340102024   0.000000000   4.064024357
C       16.595610265   0.000000000   6.819438364
C       18.918708304   0.000000000  -0.010145671
C       18.700860869   0.000000000   2.842808602
C       21.120340597   0.000000000   4.093551669
C       21.293588071   0.000000000   6.779463092
H       23.163830721   0.000000000  -0.403439635
H       22.862737233   0.000000000   2.998702312

CELL_PARAMETERS { bohr } 
94.485808	0	0
0	47.242904	0
0	0	8.0501908416
K_POINTS (gamma) 
