&CONTROL
  calculation = "relax",
  dt          = 30.D0,
  pseudo_dir='/home/lucia/q-e-qe-6.5/pseudo',
  outdir      = "./outdir",
/
&SYSTEM
  ibrav       = 0,
  nat         = 22,
  ntyp        = 3,
  ecutwfc     = 15.D0,
  occupations = "smearing",
  smearing    = "gaussian",
  degauss     =  0.02
/
&ELECTRONS
  conv_thr    = 1.D-7,
  mixing_beta = 0.3D0,
/
&IONS
  ion_dynamics      = "damp",
  pot_extrapolation = "second_order",
  wfc_extrapolation = "second_order",
/
ATOMIC_SPECIES
 C  12.0107 C.pbe-n-kjpaw_psl.1.0.0.UPF  
 H  1.00784  H_ONCV_PBE-1.0.oncvpsp.upf
 Ge 72.64	Ge.pbe-dn-kjpaw_psl.1.0.0.UPF
ATOMIC_POSITIONS { bohr }
H       -1.490002083   0.000000000  -0.405488056
H       -0.870035185   0.000000000   2.731301718
C        0.760602845   0.000000000   4.045010767
C        0.430039260   0.000000000   6.804559719
C        3.046127436   0.000000000  -0.125937927
C        3.376508009   0.000000000   2.937128162
C        5.860456906   0.000000000   4.046876423
C        5.523488962   0.000000000   6.833639430
C        8.088195455   0.000000000   0.048295583
C        8.500802693   0.000000000   2.747984386
Ge      11.104447284   0.000000000   6.839097467
C       11.104113279   0.000000000   3.590588166
C       14.148098581   0.000000000   0.042406759
C       13.771618712   0.000000000   2.761981235
C       16.442189263   0.000000000   4.043933031
C       16.652614534   0.000000000   6.819753270
C       19.157877432   0.000000000  -0.160744031
C       18.920605726   0.000000000   2.918620754
C       21.542165632   0.000000000   4.025653969
C       21.700140118   0.000000000   6.792239930
H       23.591791749   0.000000000  -0.357747167
H       23.231128510   0.000000000   2.789187974


CELL_PARAMETERS { bohr } 
94.485808	0	0
0	47.242904	0
0	0	8.0501908416
K_POINTS (gamma) 
